
Gurobi 7.5.2 (linux64) logging started Sat Jul  7 16:20:40 2018

Changed value of parameter LogFile to result/ilp/simNo_6-n_100-m_40-s_4-minVAF_0.05-cov_10000-k_1-fn_0.10-fp_0.0001-na_0.15.ILP.gurobiSolverLog
   Prev: gurobi.log  Default: 
Changed value of parameter TimeLimit to 86400.0
   Prev: 1e+100  Min: 0.0  Max: 1e+100  Default: 1e+100
Optimize a model with 639293 rows, 10765 columns and 1940420 nonzeros
Variable types: 0 continuous, 10765 integer (10765 binary)
Coefficient statistics:
  Matrix range     [5e-04, 4e+00]
  Objective range  [6e-01, 9e+00]
  Bounds range     [1e+00, 1e+00]
  RHS range        [3e-01, 2e+00]
Found heuristic solution: objective -15305.54868
Presolve removed 131616 rows and 1007 columns (presolve time = 5s) ...
Presolve removed 132178 rows and 1007 columns (presolve time = 14s) ...
Presolve removed 188378 rows and 1569 columns (presolve time = 15s) ...
Presolve removed 188378 rows and 1569 columns (presolve time = 20s) ...
Presolve removed 188378 rows and 1569 columns
Presolve time: 20.41s
Presolved: 450915 rows, 9196 columns, 1357463 nonzeros
Variable types: 0 continuous, 9196 integer (9196 binary)
Presolved: 9196 rows, 460111 columns, 1366659 nonzeros

Presolve removed 9196 rows and 460111 columns

Root simplex log...

Iteration    Objective       Primal Inf.    Dual Inf.      Time
       0    7.3482463e+00   0.000000e+00   7.403800e+04     25s
    4860   -6.0060941e+01   0.000000e+00   2.446763e+04     25s
   17865   -2.6477855e+02   0.000000e+00   8.476591e+04     30s
   31268   -3.2889010e+02   0.000000e+00   0.000000e+00     35s
   31268   -3.2889010e+02   0.000000e+00   0.000000e+00     35s

Root relaxation: objective -3.288901e+02, 31268 iterations, 13.39 seconds
Total elapsed time = 70.71s
Total elapsed time = 115.49s
Total elapsed time = 140.57s

    Nodes    |    Current Node    |     Objective Bounds      |     Work
 Expl Unexpl |  Obj  Depth IntInf | Incumbent    BestBd   Gap | It/Node Time

     0     0 -328.89010    0 1191 -15305.549 -328.89010  97.9%     -  143s
H    0     0                    -461.8193960 -328.89010  28.8%     -  147s
H    0     0                    -449.2059431 -328.89010  26.8%     -  148s
H    0     0                    -422.4338042 -328.89010  22.1%     -  149s
     0     0 -332.85698    0 1087 -422.43380 -332.85698  21.2%     -  188s
H    0     0                    -411.2787463 -332.85698  19.1%     -  198s
     0     0 -332.85698    0 1064 -411.27875 -332.85698  19.1%     -  200s
     0     0 -335.52624    0 1076 -411.27875 -335.52624  18.4%     -  258s
H    0     0                    -400.4412449 -335.52624  16.2%     -  262s
     0     0 -336.51014    0 1091 -400.44124 -336.51014  16.0%     -  351s
     0     0 -336.51014    0 1090 -400.44124 -336.51014  16.0%     -  360s
     0     0 -339.41555    0 1084 -400.44124 -339.41555  15.2%     -  472s
H    0     0                    -386.8628383 -339.41555  12.3%     -  476s
     0     0 -340.28695    0 1745 -386.86284 -340.28695  12.0%     -  645s
     0     0 -340.32059    0 1736 -386.86284 -340.32059  12.0%     -  659s
     0     0 -340.32059    0 1743 -386.86284 -340.32059  12.0%     -  663s
     0     0 -341.19652    0 1821 -386.86284 -341.19652  11.8%     -  769s
     0     0 -341.26627    0 1765 -386.86284 -341.26627  11.8%     -  786s
     0     0 -341.26627    0 1764 -386.86284 -341.26627  11.8%     -  789s
     0     0 -342.24898    0 1808 -386.86284 -342.24898  11.5%     -  865s
     0     0 -342.27866    0 1829 -386.86284 -342.27866  11.5%     -  879s
     0     0 -342.28532    0 1883 -386.86284 -342.28532  11.5%     -  884s
     0     0 -343.47882    0 1778 -386.86284 -343.47882  11.2%     - 1041s
     0     0 -343.47917    0 1816 -386.86284 -343.47917  11.2%     - 1052s
     0     0 -345.25156    0 1233 -386.86284 -345.25156  10.8%     - 1442s
     0     0 -345.40073    0 1307 -386.86284 -345.40073  10.7%     - 1473s
     0     0 -345.42177    0 1307 -386.86284 -345.42177  10.7%     - 1555s
     0     0 -345.42177    0 1313 -386.86284 -345.42177  10.7%     - 1559s
     0     0 -347.43638    0 1213 -386.86284 -347.43638  10.2%     - 1808s
     0     0 -347.48257    0 1218 -386.86284 -347.48257  10.2%     - 1847s
     0     0 -347.63175    0 1307 -386.86284 -347.63175  10.1%     - 1887s
     0     0 -347.65278    0 1307 -386.86284 -347.65278  10.1%     - 1954s
     0     0 -348.55189    0 1218 -386.86284 -348.55189  9.90%     - 2257s
     0     0 -348.59807    0 1220 -386.86284 -348.59807  9.89%     - 2305s
     0     0 -348.59807    0 1229 -386.86284 -348.59807  9.89%     - 2316s
     0     0 -350.13932    0 1444 -386.86284 -350.13932  9.49%     - 3015s
H    0     0                    -384.6318267 -350.13932  8.97%     - 3026s
     0     0 -350.21998    0 1862 -384.63183 -350.21998  8.95%     - 3079s
     0     0 -350.21998    0 1838 -384.63183 -350.21998  8.95%     - 3083s
     0     0 -350.73024    0 1249 -384.63183 -350.73024  8.81%     - 3288s
     0     0 -350.73024    0 1254 -384.63183 -350.73024  8.81%     - 3297s
     0     0 -352.03684    0 1075 -384.63183 -352.03684  8.47%     - 5188s
     0     0 -352.31572    0 1024 -384.63183 -352.31572  8.40%     - 5276s
     0     0 -352.87947    0 1201 -384.63183 -352.87947  8.26%     - 5886s
     0     0 -353.10257    0 1248 -384.63183 -353.10257  8.20%     - 5990s
     0     0 -353.10257    0 1261 -384.63183 -353.10257  8.20%     - 5997s
     0     0 -354.53927    0 1191 -384.63183 -354.53927  7.82%     - 7226s
     0     0 -354.75291    0 1425 -384.63183 -354.75291  7.77%     - 7436s
     0     0 -354.75913    0 1429 -384.63183 -354.75913  7.77%     - 7442s
     0     0 -357.41290    0 1359 -384.63183 -357.41290  7.08%     - 9578s
     0     0 -357.87553    0 1045 -384.63183 -357.87553  6.96%     - 10925s
     0     0 -357.91840    0 1777 -384.63183 -357.91840  6.95%     - 11245s
     0     0 -357.91840    0 1785 -384.63183 -357.91840  6.95%     - 11248s
     0     0 -360.30881    0 1324 -384.63183 -360.30881  6.32%     - 15549s
H    0     0                    -382.4012652 -360.30881  5.78%     - 15564s
     0     0 -360.41598    0 1812 -382.40127 -360.41598  5.75%     - 15621s
     0     0 -360.46630    0 1808 -382.40127 -360.46630  5.74%     - 15635s
     0     0 -360.48821    0 1417 -382.40127 -360.48821  5.73%     - 15641s
     0     0 -360.48821    0 1421 -382.40127 -360.48821  5.73%     - 15643s
     0     0 -360.72664    0 1814 -382.40127 -360.72664  5.67%     - 15672s
     0     0 -360.75326    0 1812 -382.40127 -360.75326  5.66%     - 15690s
     0     0 -360.75326    0 1817 -382.40127 -360.75326  5.66%     - 15694s
     0     0 -361.13364    0 1259 -382.40127 -361.13364  5.56%     - 15722s
     0     0 -361.66714    0 1252 -382.40127 -361.66714  5.42%     - 15951s
     0     0 -361.68552    0 1259 -382.40127 -361.68552  5.42%     - 15971s
     0     0 -361.69426    0 1844 -382.40127 -361.69426  5.41%     - 15997s
     0     0 -361.69426    0 1842 -382.40127 -361.69426  5.41%     - 16000s
     0     0 -361.74581    0 1433 -382.40127 -361.74581  5.40%     - 16041s
     0     0 -361.75845    0 1357 -382.40127 -361.75845  5.40%     - 16077s
     0     0 -361.75845    0 1355 -382.40127 -361.75845  5.40%     - 16079s
     0     0 -361.77052    0 1349 -382.40127 -361.77052  5.40%     - 16105s
     0     0 -361.77070    0 1363 -382.40127 -361.77070  5.40%     - 16115s
     0     0 -362.34363    0 1384 -382.40127 -362.34363  5.25%     - 16808s
     0     0 -362.34573    0 1316 -382.40127 -362.34573  5.24%     - 16825s
     0     0 -362.50287    0 1323 -382.40127 -362.50287  5.20%     - 16840s
     0     0 -362.71784    0 1332 -382.40127 -362.71784  5.15%     - 16887s
     0     0 -362.71784    0 1334 -382.40127 -362.71784  5.15%     - 16890s
     0     0 -362.74552    0 1122 -382.40127 -362.74552  5.14%     - 16902s
     0     0 -362.74552    0 1123 -382.40127 -362.74552  5.14%     - 16909s
     0     0 -363.22685    0 1350 -382.40127 -363.22685  5.01%     - 16964s
     0     0 -363.44019    0 1356 -382.40127 -363.44019  4.96%     - 17004s
     0     0 -363.44019    0 1358 -382.40127 -363.44019  4.96%     - 17009s
     0     0 -364.53236    0 1127 -382.40127 -364.53236  4.67%     - 17295s
     0     0 -364.53236    0 1136 -382.40127 -364.53236  4.67%     - 17302s
     0     0 -365.33829    0 1136 -382.40127 -365.33829  4.46%     - 17505s
     0     0 -365.38758    0 1135 -382.40127 -365.38758  4.45%     - 17526s
     0     0 -365.38758    0 1143 -382.40127 -365.38758  4.45%     - 17531s
     0     0 -365.62355    0 1362 -382.40127 -365.62355  4.39%     - 17610s
     0     0 -365.74530    0 1366 -382.40127 -365.74530  4.36%     - 17646s
     0     0 -365.75091    0 1365 -382.40127 -365.75091  4.35%     - 17652s
     0     0 -365.75091    0 1362 -382.40127 -365.75091  4.35%     - 17654s
     0     0 -366.13110    0 1159 -382.40127 -366.13110  4.25%     - 17700s
     0     0 -366.13110    0 1160 -382.40127 -366.13110  4.25%     - 17708s
     0     0 -366.84962    0 1153 -382.40127 -366.84962  4.07%     - 17968s
     0     0 -366.87822    0 1128 -382.40127 -366.87822  4.06%     - 18460s
     0     0 -366.89624    0 1248 -382.40127 -366.89624  4.05%     - 18470s
     0     0 -366.89624    0 1263 -382.40127 -366.89624  4.05%     - 18474s
     0     0 -367.12611    0 1147 -382.40127 -367.12611  3.99%     - 18493s
     0     0 -367.12611    0 1153 -382.40127 -367.12611  3.99%     - 18501s
     0     0 -367.34301    0 1160 -382.40127 -367.34301  3.94%     - 18553s
     0     0 -367.34301    0 1160 -382.40127 -367.34301  3.94%     - 18559s
     0     0 -367.62189    0  776 -382.40127 -367.62189  3.86%     - 18750s
     0     0 -367.62189    0  779 -382.40127 -367.62189  3.86%     - 18763s
     0     0 -367.62189    0  785 -382.40127 -367.62189  3.86%     - 18775s
     0     0 -367.62189    0  776 -382.40127 -367.62189  3.86%     - 18782s
     0     0 -367.62189    0  743 -382.40127 -367.62189  3.86%     - 19434s
     0     0 -367.62189    0  742 -382.40127 -367.62189  3.86%     - 19493s
     0     2 -367.62602    0  742 -382.40127 -367.62602  3.86%     - 19752s
     1     3 -367.65563    1  741 -382.40127 -367.63302  3.86%  6440 19761s
     3     5 -368.14705    3 1256 -382.40127 -367.63302  3.86%  3537 19781s
     4     6 -369.20708    4  593 -382.40127 -367.63302  3.86%  2799 19785s
     6     8 -373.66911    6  524 -382.40127 -367.63302  3.86%  2205 19793s
     7     9 -375.90012    6  592 -382.40127 -367.63302  3.86%  2584 19822s
     8    10 -376.64379    7  576 -382.40127 -367.63302  3.86%  2304 19833s
     9     9     cutoff    7      -382.40127 -367.63302  3.86%  2355 19841s
    12    10     cutoff    9      -382.40127 -367.63302  3.86%  1796 19845s
    18    10 -381.19877   11  393 -382.40127 -367.63302  3.86%  1239 19852s
    22     7     cutoff    1      -382.40127 -367.66086  3.85%  1477 19941s
    23     6     cutoff    2      -382.40127 -367.66176  3.85%  1865 20015s
    24     5     cutoff    3      -382.40127 -368.19213  3.72%  2214 20100s
    25     4     cutoff    4      -382.40127 -369.20708  3.45%  2711 20196s
    26     5 -371.43809    5  503 -382.40127 -371.43809  2.87%  2770 20219s
    27     6 -373.52967    6  594 -382.40127 -371.43809  2.87%  2702 20237s
    29     6     cutoff    7      -382.40127 -371.43809  2.87%  2603 20245s
    30     7 -375.90012    6  780 -382.40127 -373.66911  2.28%  2587 20252s
    33     8 -374.78461    9  564 -382.40127 -373.67486  2.28%  2357 20255s
    38     9 -375.90012   12  547 -382.40127 -373.67486  2.28%  2085 20262s
    40    11 -378.13113   14  880 -382.40127 -373.67486  2.28%  1988 20271s
    44    11 -381.47765   14  688 -382.40127 -373.67486  2.28%  1829 20275s
    50     9 -377.94521    7  527 -382.40127 -373.76439  2.26%  1629 20281s
    53    12 -382.31428   10  405 -382.40127 -373.76439  2.26%  1543 20285s
    61    12 -381.47765   11  601 -382.40127 -373.76439  2.26%  1353 20290s
    68     9 -377.01562    8  740 -382.40127 -374.78461  1.99%  1234 20296s
    72    13 -381.31829   12  674 -382.40127 -374.78461  1.99%  1171 20308s
    79    12 -381.47765    8  466 -382.40127 -374.78461  1.99%  1084 20313s
    80    13 -382.31428    9  425 -382.40127 -374.78461  1.99%  1071 20320s
    86     9 -377.01562    7  731 -382.40127 -376.64379  1.51%  1006 20326s
    88    11 -381.47765    9  636 -382.40127 -376.64379  1.51%   989 20335s
    94     9 -380.36214    8  694 -382.40127 -376.64379  1.51%   929 20342s
    96    11 -381.47765   10  684 -382.40127 -376.64379  1.51%   912 20348s
   102     9     cutoff   11      -382.40127 -376.64379  1.51%   860 20350s
   105    10     cutoff    9      -382.40127 -377.20576  1.36%   849 20355s
   113     6 -379.24663   10  664 -382.40127 -379.24663  0.82%   797 20360s
   123     2 -381.44315   12  438 -382.40127 -381.44315  0.25%   739 20365s

Cutting planes:
  Gomory: 1
  MIR: 1
  Zero half: 315

Explored 126 nodes (1051275 simplex iterations) in 20366.57 seconds
Thread count was 1 (of 80 available processors)

Solution count 9: -382.401 -384.632 -386.863 ... -15305.5

Optimal solution found (tolerance 1.00e-04)
Best objective -3.824012651693e+02, best bound -3.824012651693e+02, gap 0.0000%
